************************************************************************
file with basedata            : md353_.bas
initial value random generator: 1345279598
************************************************************************
projects                      :  1
jobs (incl. supersource/sink ):  22
horizon                       :  158
RESOURCES
  - renewable                 :  2   R
  - nonrenewable              :  2   N
  - doubly constrained        :  0   D
************************************************************************
PROJECT INFORMATION:
pronr.  #jobs rel.date duedate tardcost  MPM-Time
    1     20      0       22        1       22
************************************************************************
PRECEDENCE RELATIONS:
jobnr.    #modes  #successors   successors
   1        1          3           2   3   4
   2        3          3           6   7  12
   3        3          3           6   7  12
   4        3          2           5   6
   5        3          1          19
   6        3          3           8  13  17
   7        3          1           9
   8        3          3          10  11  16
   9        3          3          14  15  20
  10        3          2          14  18
  11        3          2          14  15
  12        3          1          17
  13        3          2          15  16
  14        3          2          19  21
  15        3          1          18
  16        3          1          20
  17        3          3          18  19  20
  18        3          1          21
  19        3          1          22
  20        3          1          22
  21        3          1          22
  22        1          0        
************************************************************************
REQUESTS/DURATIONS:
jobnr. mode duration  R 1  R 2  N 1  N 2
------------------------------------------------------------------------
  1      1     0       0    0    0    0
  2      1     4       4    0    6    9
         2     5       0    7    6    9
         3     8       1    0    6    9
  3      1     3       0    4    7    8
         2     8       0    4    6    7
         3    10       0    3    6    2
  4      1     2       9    0   10    4
         2     7       0   10    9    4
         3     9       9    0    7    1
  5      1     5       6    0    9    5
         2     5       0    7    9    5
         3     9       0    2    9    2
  6      1     1       0    7    7   10
         2     4       0    4    6   10
         3     6       0    3    5   10
  7      1     1      10    0    9    6
         2     6       8    0    7    4
         3     8       0    5    5    3
  8      1     5       0    7    8    6
         2     9       0    5    6    3
         3    10       7    0    4    3
  9      1     3       0    5    9    9
         2     5       0    3    6    7
         3     8       0    3    6    5
 10      1     1       6    0    3    5
         2     1       0    8    3    5
         3     8       6    0    2    3
 11      1     4       0    7   10    7
         2     4       8    0   10    7
         3     9       4    0    9    4
 12      1     3       0   10    1    9
         2     4       0   10    1    8
         3     5       0    9    1    6
 13      1     6       0    9    8    3
         2     7       2    0    8    2
         3     8       0    5    7    2
 14      1     4      10    0    8    4
         2     5       8    0    6    3
         3     7       0    1    4    1
 15      1     1       2    0    8    6
         2     3       0    5    8    5
         3     4       2    0    6    5
 16      1     2       3    0    6    8
         2     9       1    0    1    8
         3     9       2    0    1    7
 17      1     2       0    7    4    9
         2     3       1    0    3    4
         3     4       0    4    2    1
 18      1     5       8    0    7    9
         2    10       2    0    4    9
         3    10       0    5    2    9
 19      1     1       8    0    9    8
         2     5       8    0    9    7
         3     7       0    5    8    7
 20      1     1       7    0    4    7
         2     1       8    0    4    6
         3    10       6    0    2    5
 21      1     2       0    4    6    8
         2     4       5    0    6    7
         3     9       5    0    6    4
 22      1     0       0    0    0    0
************************************************************************
RESOURCEAVAILABILITIES:
  R 1  R 2  N 1  N 2
    9   16  108  102
************************************************************************
